<number of tasks>
20

<cycle time>
1000

<order strength>
0,526


<task times>
1 141
2 118
3 136
4 117
5 140
6 194
7 110
8 69
9 80
10 219
11 155
12 168
13 60
14 185
15 218
16 192
17 148
18 102
19 214
20 140

<precedence relations>
1,5
2,7
3,6
3,10
4,8
4,9
4,10
5,13
6,11
7,12
8,18
9,15
10,13
11,15
12,15
13,14
13,15
14,16
15,17
15,18
15,19
16,20
17,20
18,20
19,20

<end>
